
Gurobi 12.0.2 (win64) logging started Wed Dec 10 17:37:21 2025

Set parameter LogFile to value "C:\Ioana\_uni\honours\slp\algorithm\Main_files\results\arachidonic_acid_metabolism\Task_002_Sample006_irr_gurobi.log"
Gurobi Optimizer version 12.0.2 build v12.0.2rc0 (win64 - Windows 11.0 (26100.2))

CPU model: Intel(R) Core(TM) Ultra 5 125H, instruction set [SSE2|AVX|AVX2]
Thread count: 14 physical cores, 18 logical processors, using up to 18 threads

Non-default parameters:
TimeLimit  2200

Optimize a model with 47236 rows, 34502 columns and 146712 nonzeros
Model fingerprint: 0x86fb2f8a
Variable types: 17253 continuous, 17249 integer (17249 binary)
Coefficient statistics:
  Matrix range     [1e-04, 8e+04]
  Objective range  [1e-04, 9e-01]
  Bounds range     [1e+00, 1e+03]
  RHS range        [1e+00, 1e+00]
Presolve removed 30836 rows and 21549 columns
Presolve time: 0.34s
Presolved: 16400 rows, 12953 columns, 54578 nonzeros
Variable types: 6409 continuous, 6544 integer (6544 binary)

Root relaxation: objective 9.919339e-03, 2381 iterations, 0.14 seconds (0.25 work units)

    Nodes    |    Current Node    |     Objective Bounds      |     Work
 Expl Unexpl |  Obj  Depth IntInf | Incumbent    BestBd   Gap | It/Node Time

     0     0    0.00992    0    5          -    0.00992      -     -    0s
H    0     0                       5.3473367    0.00992   100%     -    0s
H    0     0                       0.0914468    0.00992  89.2%     -    0s
H    0     0                       0.0462388    0.00992  78.5%     -    0s

Cutting planes:
  Cover: 3
  Flow cover: 4

Explored 1 nodes (2381 simplex iterations) in 0.77 seconds (0.82 work units)
Thread count was 18 (of 18 available processors)

Solution count 3: 0.0462388 0.0914468 5.34734 

Optimal solution found (tolerance 1.00e-04)
Best objective 4.623877745135e-02, best bound 4.623877745135e-02, gap 0.0000%
